p edge 20 66
e 1 3
e 1 8
e 1 11
e 1 13
e 1 16
e 1 17
e 2 4
e 2 5
e 2 7
e 2 8
e 2 11
e 2 16
e 2 19
e 2 20
e 3 5
e 3 7
e 3 9
e 3 12
e 3 16
e 3 17
e 3 19
e 4 7
e 4 9
e 4 13
e 4 14
e 5 10
e 5 14
e 5 15
e 5 18
e 5 19
e 6 10
e 6 13
e 6 14
e 6 17
e 6 20
e 7 9
e 7 10
e 7 20
e 8 9
e 8 12
e 8 13
e 8 14
e 8 16
e 8 17
e 8 18
e 9 11
e 9 12
e 9 13
e 10 11
e 10 12
e 10 13
e 10 14
e 10 15
e 10 18
e 11 12
e 11 19
e 12 15
e 13 14
e 13 15
e 13 16
e 14 15
e 14 17
e 14 18
e 15 16
e 16 19
e 18 20
